toy_100.sat
(or a1 (and a2 (and a3 (and a4 (and a5 (and a6 (and a7 (and a8 (and a9 (and a10 (and a11 (and a12 (and a13 (and a14 (and a15 (and a16 (and a17 (and a18 (and a19 (and a20 (and a21 (and a22 (and a23 (and a24 (and a25 (and a26 (and a27 (and a28 (and a29 (and a30 (and a31 (and a32 (and a33 (and a34 (and a35 (and a36 (and a37 (and a38 (and a39 (and a40 (and a41 (and a42 (and a43 (and a44 (and a45 (and a46 (and a47 (and a48 (and a49 (and a50 (and a51 (and a52 (and a53 (and a54 (and a55 (and a56 (and a57 (and a58 (and a59 (and a60 (and a61 (and a62 (and a63 (and a64 (and a65 (and a66 (and a67 (and a68 (and a69 (and a70 (and a71 (and a72 (and a73 (and a74 (and a75 (and a76 (and a77 (and a78 (and a79 (and a80 (and a81 (and a82 (and a83 (and a84 (and a85 (and a86 (and a87 (and a88 (and a89 (and a90 (and a91 (and a92 (and a93 (and a94 (and a95 (and a96 (and a97 (and a98 (and a99 a100)))))))))))))))))))))))))))))))))))))))))))))))))))))))))))))))))))))))))))))))))))))))))))))))))))